(set-logic HORN)
(declare-datatypes ((Nat_264 0)) (((zero_42 ) (succ_42 (p_123 Nat_264)))))
(declare-fun diseqNat_264 (Nat_264 Nat_264) Bool)
(declare-fun p_125 (Nat_264 Nat_264) Bool)
(declare-fun iszero_42 (Nat_264) Bool)
(declare-fun issucc_42 (Nat_264) Bool)
(assert (forall ((x_22094 Nat_264))
	(p_125 x_22094 (succ_42 x_22094))))
(assert (iszero_42 zero_42))
(assert (forall ((x_22096 Nat_264))
	(issucc_42 (succ_42 x_22096))))
(assert (forall ((x_22097 Nat_264))
	(diseqNat_264 zero_42 (succ_42 x_22097))))
(assert (forall ((x_22098 Nat_264))
	(diseqNat_264 (succ_42 x_22098) zero_42)))
(assert (forall ((x_22099 Nat_264) (x_22100 Nat_264))
	(=> (diseqNat_264 x_22099 x_22100)
	    (diseqNat_264 (succ_42 x_22099) (succ_42 x_22100)))))
(declare-datatypes ((Integer_2 0)) (((P_124 (projP_4 Nat_264)) (N_47 (projN_4 Nat_264)))))
(declare-fun diseqInteger_2 (Integer_2 Integer_2) Bool)
(declare-fun projP_5 (Nat_264 Integer_2) Bool)
(declare-fun projN_5 (Nat_264 Integer_2) Bool)
(declare-fun isP_2 (Integer_2) Bool)
(declare-fun isN_2 (Integer_2) Bool)
(assert (forall ((x_22101 Nat_264))
	(projP_5 x_22101 (P_124 x_22101))))
(assert (forall ((x_22103 Nat_264))
	(projN_5 x_22103 (N_47 x_22103))))
(assert (forall ((x_22105 Nat_264))
	(isP_2 (P_124 x_22105))))
(assert (forall ((x_22106 Nat_264))
	(isN_2 (N_47 x_22106))))
(assert (forall ((x_22107 Nat_264) (x_22108 Nat_264))
	(diseqInteger_2 (P_124 x_22107) (N_47 x_22108))))
(assert (forall ((x_22109 Nat_264) (x_22110 Nat_264))
	(diseqInteger_2 (N_47 x_22109) (P_124 x_22110))))
(assert (forall ((x_22111 Nat_264) (x_22112 Nat_264))
	(=> (diseqNat_264 x_22111 x_22112)
	    (diseqInteger_2 (P_124 x_22111) (P_124 x_22112)))))
(assert (forall ((x_22113 Nat_264) (x_22114 Nat_264))
	(=> (diseqNat_264 x_22113 x_22114)
	    (diseqInteger_2 (N_47 x_22113) (N_47 x_22114)))))
(declare-fun zero_43 (Integer_2) Bool)
(assert (zero_43 (P_124 zero_42)))
(declare-fun plus_38 (Nat_264 Nat_264 Nat_264) Bool)
(assert (forall ((x_22052 Nat_264) (z_834 Nat_264) (y_833 Nat_264))
	(=> (plus_38 x_22052 z_834 y_833)
	    (plus_38 (succ_42 x_22052) (succ_42 z_834) y_833))))
(assert (forall ((x_22053 Nat_264))
	(plus_38 x_22053 zero_42 x_22053)))
(declare-fun neg_2 (Integer_2 Integer_2) Bool)
(assert (forall ((x_22055 Nat_264) (n_48 Nat_264))
	(=> (plus_38 x_22055 (succ_42 zero_42) n_48)
	    (neg_2 (P_124 x_22055) (N_47 n_48)))))
(assert (forall ((z_835 Nat_264))
	(neg_2 (N_47 z_835) (P_124 (succ_42 z_835)))))
(assert (neg_2 (P_124 zero_42) (P_124 zero_42)))
(declare-fun x_22039 (Integer_2 Nat_264 Nat_264) Bool)
(assert (forall ((x_22041 Nat_264) (z_836 Nat_264) (fail_6 Integer_2))
	(=> (x_22039 fail_6 x_22041 z_836)
	    (x_22039 fail_6 (succ_42 x_22041) (succ_42 z_836)))))
(assert (forall ((x_22043 Nat_264))
	(x_22039 (N_47 (succ_42 x_22043)) zero_42 (succ_42 x_22043))))
(assert (forall ((x_22042 Nat_264))
	(x_22039 (P_124 (succ_42 x_22042)) (succ_42 x_22042) zero_42)))
(assert (x_22039 (P_124 zero_42) zero_42 zero_42))
(declare-fun plus_39 (Integer_2 Integer_2 Integer_2) Bool)
(assert (forall ((x_22071 Nat_264) (x_22072 Nat_264) (n_49 Nat_264) (m_22 Nat_264))
	(=>	(and (plus_38 x_22071 (succ_42 zero_42) m_22)
			(plus_38 x_22072 x_22071 n_49))
		(plus_39 (N_47 x_22072) (N_47 m_22) (N_47 n_49)))))
(assert (forall ((x_22073 Integer_2) (x_22074 Nat_264) (n_50 Nat_264) (m_22 Nat_264))
	(=>	(and (plus_38 x_22074 (succ_42 zero_42) m_22)
			(x_22039 x_22073 n_50 x_22074))
		(plus_39 x_22073 (N_47 m_22) (P_124 n_50)))))
(assert (forall ((x_22076 Integer_2) (x_22077 Nat_264) (o_1 Nat_264) (m_23 Nat_264))
	(=>	(and (plus_38 x_22077 (succ_42 zero_42) o_1)
			(x_22039 x_22076 m_23 x_22077))
		(plus_39 x_22076 (P_124 m_23) (N_47 o_1)))))
(assert (forall ((x_22080 Nat_264) (n_51 Nat_264) (m_23 Nat_264))
	(=> (plus_38 x_22080 m_23 n_51)
	    (plus_39 (P_124 x_22080) (P_124 m_23) (P_124 n_51)))))
(assert (forall ((x_22081 Integer_2) (x_22082 Integer_2) (x_22083 Integer_2) (x_22045 Integer_2))
	(=>	(and true
			(diseqInteger_2 x_22082 x_22083)
			(neg_2 x_22081 x_22045)
			(plus_39 x_22082 x_22045 x_22081)
			(zero_43 x_22083))
		false)))
(assert (forall ((x_22084 Nat_264) (x_22085 Nat_264) (x_22086 Nat_264) (x_22087 Nat_264) (x_22046 Nat_264) (y_837 Nat_264) (z_837 Nat_264))
	(=>	(and true
			(diseqNat_264 x_22085 x_22087)
			(plus_38 x_22084 y_837 z_837)
			(plus_38 x_22085 x_22046 x_22084)
			(plus_38 x_22086 x_22046 y_837)
			(plus_38 x_22087 x_22086 z_837))
		false)))
(assert (forall ((x_22088 Nat_264) (x_22089 Nat_264) (x_22047 Nat_264) (y_838 Nat_264))
	(=>	(and true
			(diseqNat_264 x_22088 x_22089)
			(plus_38 x_22088 x_22047 y_838)
			(plus_38 x_22089 y_838 x_22047))
		false)))
(assert (forall ((x_22090 Nat_264) (x_22048 Nat_264))
	(=>	(and true
			(diseqNat_264 x_22090 x_22048)
			(plus_38 x_22090 x_22048 zero_42))
		false)))
(assert (forall ((x_22091 Nat_264) (x_22049 Nat_264))
	(=>	(and true
			(diseqNat_264 x_22091 x_22049)
			(plus_38 x_22091 zero_42 x_22049))
		false)))
(check-sat)
